nK = 622;
nT = 4;
nI = 7;
L = 29;
TT = 162;
np = 1;
nc = 3;
b = [50, 57, 26, 56, 59, 25, 33];
d = [87, 139, 62, 131, 93, 66, 131];
m = [1.3, 1.2, 1.2, 1.4, 2.4, 1, 2];
pt = [0.26, 0.24, 0.32, 0.29];
st = [14.04, 12.72, 19.2, 11.6];
arc = {<1, 0, 1, 1, 0, 0, 0, [1, 1, 1, 1]>, <2, 1, 2, 1, 0, 0, 0, [1, 1, 1, 1]>, <3, 2, 3, 1, 0, 0, 0, [1, 1, 1, 1]>, <4, 3, 4, 1, 0, 0, 0, [1, 1, 1, 1]>, <5, 4, 5, 1, 0, 0, 0, [1, 1, 1, 1]>, <6, 5, 6, 1, 0, 0, 0, [1, 1, 1, 1]>, <7, 6, 7, 1, 0, 0, 0, [1, 1, 1, 1]>, <8, 7, 8, 1, 0, 0, 0, [1, 1, 1, 1]>, <9, 8, 9, 1, 0, 0, 0, [1, 1, 1, 1]>, <10, 9, 10, 1, 0, 0, 0, [1, 1, 1, 1]>, <11, 10, 11, 1, 0, 0, 0, [1, 1, 1, 1]>, <12, 11, 12, 1, 0, 0, 0, [1, 1, 1, 1]>, <13, 12, 13, 1, 0, 0, 0, [1, 1, 1, 1]>, <14, 13, 14, 1, 0, 0, 0, [1, 1, 1, 1]>, <15, 14, 15, 1, 0, 0, 0, [1, 1, 1, 1]>, <16, 15, 16, 1, 0, 0, 0, [1, 1, 1, 1]>, <17, 16, 17, 1, 0, 0, 0, [1, 1, 1, 1]>, <18, 17, 18, 1, 0, 0, 0, [1, 1, 1, 1]>, <19, 18, 19, 1, 0, 0, 0, [1, 1, 1, 1]>, <20, 19, 20, 1, 0, 0, 0, [1, 1, 1, 1]>, <21, 20, 21, 1, 0, 0, 0, [1, 1, 1, 1]>, <22, 21, 22, 1, 0, 0, 0, [1, 1, 1, 1]>, <23, 22, 23, 1, 0, 0, 0, [1, 1, 1, 1]>, <24, 23, 24, 1, 0, 0, 0, [1, 1, 1, 1]>, <25, 24, 25, 1, 0, 0, 0, [1, 1, 1, 1]>, <26, 25, 26, 1, 0, 0, 0, [1, 1, 1, 1]>, <27, 26, 27, 1, 0, 0, 0, [1, 1, 1, 1]>, <28, 27, 28, 1, 0, 0, 0, [1, 1, 1, 1]>, <29, 28, 29, 1, 0, 0, 0, [1, 1, 1, 1]>, <30, 0, 12, 12, 1, 0, 0, [1, 1, 0, 1]>, <31, 1, 13, 12, 1, 0, 0, [1, 1, 0, 1]>, <32, 2, 14, 12, 1, 0, 0, [1, 1, 0, 1]>, <33, 3, 15, 12, 1, 0, 0, [1, 1, 0, 1]>, <34, 4, 16, 12, 1, 0, 0, [1, 1, 0, 1]>, <35, 5, 17, 12, 1, 0, 0, [1, 1, 0, 1]>, <36, 8, 20, 12, 1, 0, 0, [1, 1, 0, 1]>, <37, 9, 21, 12, 1, 0, 0, [1, 1, 0, 1]>, <38, 10, 22, 12, 1, 0, 0, [1, 1, 0, 1]>, <39, 11, 23, 12, 1, 0, 0, [1, 1, 0, 1]>, <40, 12, 24, 12, 1, 0, 0, [1, 1, 0, 1]>, <41, 13, 25, 12, 1, 0, 0, [1, 1, 0, 1]>, <42, 14, 26, 12, 1, 0, 0, [1, 1, 0, 1]>, <43, 15, 27, 12, 1, 0, 0, [1, 1, 0, 1]>, <44, 16, 28, 12, 1, 0, 0, [1, 1, 0, 1]>, <45, 17, 29, 12, 1, 0, 0, [1, 1, 0, 1]>, <46, 0, 12, 12, 2, 0, 0, [1, 0, 1, 1]>, <47, 1, 13, 12, 2, 0, 0, [1, 0, 1, 1]>, <48, 2, 14, 12, 2, 0, 0, [1, 0, 1, 1]>, <49, 3, 15, 12, 2, 0, 0, [1, 0, 1, 1]>, <50, 4, 16, 12, 2, 0, 0, [1, 0, 1, 1]>, <51, 5, 17, 12, 2, 0, 0, [1, 0, 1, 1]>, <52, 8, 20, 12, 2, 0, 0, [1, 0, 1, 1]>, <53, 9, 21, 12, 2, 0, 0, [1, 0, 1, 1]>, <54, 10, 22, 12, 2, 0, 0, [1, 0, 1, 1]>, <55, 11, 23, 12, 2, 0, 0, [1, 0, 1, 1]>, <56, 12, 24, 12, 2, 0, 0, [1, 0, 1, 1]>, <57, 13, 25, 12, 2, 0, 0, [1, 0, 1, 1]>, <58, 14, 26, 12, 2, 0, 0, [1, 0, 1, 1]>, <59, 15, 27, 12, 2, 0, 0, [1, 0, 1, 1]>, <60, 16, 28, 12, 2, 0, 0, [1, 0, 1, 1]>, <61, 17, 29, 12, 2, 0, 0, [1, 0, 1, 1]>, <62, 0, 12, 12, 3, 1, 0, [0, 1, 1, 1]>, <63, 1, 13, 12, 3, 1, 0, [0, 1, 1, 1]>, <64, 2, 14, 12, 3, 1, 0, [0, 1, 1, 1]>, <65, 3, 15, 12, 3, 1, 0, [0, 1, 1, 1]>, <66, 4, 16, 12, 3, 1, 0, [0, 1, 1, 1]>, <67, 5, 17, 12, 3, 1, 0, [0, 1, 1, 1]>, <68, 8, 20, 12, 3, 1, 0, [0, 1, 1, 1]>, <69, 9, 21, 12, 3, 1, 0, [0, 1, 1, 1]>, <70, 10, 22, 12, 3, 1, 0, [0, 1, 1, 1]>, <71, 11, 23, 12, 3, 1, 0, [0, 1, 1, 1]>, <72, 12, 24, 12, 3, 1, 0, [0, 1, 1, 1]>, <73, 13, 25, 12, 3, 1, 0, [0, 1, 1, 1]>, <74, 14, 26, 12, 3, 1, 0, [0, 1, 1, 1]>, <75, 15, 27, 12, 3, 1, 0, [0, 1, 1, 1]>, <76, 16, 28, 12, 3, 1, 0, [0, 1, 1, 1]>, <77, 17, 29, 12, 3, 1, 0, [0, 1, 1, 1]>, <78, 0, 13, 13, 4, 0, 0, [1, 1, 0, 1]>, <79, 1, 14, 13, 4, 0, 0, [1, 1, 0, 1]>, <80, 2, 15, 13, 4, 0, 0, [1, 1, 0, 1]>, <81, 3, 16, 13, 4, 0, 0, [1, 1, 0, 1]>, <82, 4, 17, 13, 4, 0, 0, [1, 1, 0, 1]>, <83, 5, 18, 13, 4, 0, 0, [1, 1, 0, 1]>, <84, 7, 20, 13, 4, 0, 0, [1, 1, 0, 1]>, <85, 8, 21, 13, 4, 0, 0, [1, 1, 0, 1]>, <86, 9, 22, 13, 4, 0, 0, [1, 1, 0, 1]>, <87, 10, 23, 13, 4, 0, 0, [1, 1, 0, 1]>, <88, 11, 24, 13, 4, 0, 0, [1, 1, 0, 1]>, <89, 12, 25, 13, 4, 0, 0, [1, 1, 0, 1]>, <90, 13, 26, 13, 4, 0, 0, [1, 1, 0, 1]>, <91, 14, 27, 13, 4, 0, 0, [1, 1, 0, 1]>, <92, 15, 28, 13, 4, 0, 0, [1, 1, 0, 1]>, <93, 16, 29, 13, 4, 0, 0, [1, 1, 0, 1]>, <94, 1, 12, 11, 5, 0, 0, [1, 0, 1, 1]>, <95, 2, 13, 11, 5, 0, 0, [1, 0, 1, 1]>, <96, 3, 14, 11, 5, 0, 0, [1, 0, 1, 1]>, <97, 4, 15, 11, 5, 0, 0, [1, 0, 1, 1]>, <98, 5, 16, 11, 5, 0, 0, [1, 0, 1, 1]>, <99, 9, 20, 11, 5, 0, 0, [1, 0, 1, 1]>, <100, 10, 21, 11, 5, 0, 0, [1, 0, 1, 1]>, <101, 11, 22, 11, 5, 0, 0, [1, 0, 1, 1]>, <102, 12, 23, 11, 5, 0, 0, [1, 0, 1, 1]>, <103, 13, 24, 11, 5, 0, 0, [1, 0, 1, 1]>, <104, 14, 25, 11, 5, 0, 0, [1, 0, 1, 1]>, <105, 15, 26, 11, 5, 0, 0, [1, 0, 1, 1]>, <106, 16, 27, 11, 5, 0, 0, [1, 0, 1, 1]>, <107, 17, 28, 11, 5, 0, 0, [1, 0, 1, 1]>, <108, 18, 29, 11, 5, 0, 0, [1, 0, 1, 1]>, <109, 0, 12, 12, 6, 0, 1, [1, 0, 1, 1]>, <110, 1, 13, 12, 6, 0, 1, [1, 0, 1, 1]>, <111, 2, 14, 12, 6, 0, 1, [1, 0, 1, 1]>, <112, 3, 15, 12, 6, 0, 1, [1, 0, 1, 1]>, <113, 4, 16, 12, 6, 0, 1, [1, 0, 1, 1]>, <114, 5, 17, 12, 6, 0, 1, [1, 0, 1, 1]>, <115, 8, 20, 12, 6, 0, 1, [1, 0, 1, 1]>, <116, 9, 21, 12, 6, 0, 1, [1, 0, 1, 1]>, <117, 10, 22, 12, 6, 0, 1, [1, 0, 1, 1]>, <118, 11, 23, 12, 6, 0, 1, [1, 0, 1, 1]>, <119, 12, 24, 12, 6, 0, 1, [1, 0, 1, 1]>, <120, 13, 25, 12, 6, 0, 1, [1, 0, 1, 1]>, <121, 14, 26, 12, 6, 0, 1, [1, 0, 1, 1]>, <122, 15, 27, 12, 6, 0, 1, [1, 0, 1, 1]>, <123, 16, 28, 12, 6, 0, 1, [1, 0, 1, 1]>, <124, 17, 29, 12, 6, 0, 1, [1, 0, 1, 1]>, <125, 0, 15, 15, 7, 0, 1, [1, 0, 1, 1]>, <126, 1, 16, 15, 7, 0, 1, [1, 0, 1, 1]>, <127, 2, 17, 15, 7, 0, 1, [1, 0, 1, 1]>, <128, 3, 18, 15, 7, 0, 1, [1, 0, 1, 1]>, <129, 4, 19, 15, 7, 0, 1, [1, 0, 1, 1]>, <130, 5, 20, 15, 7, 0, 1, [1, 0, 1, 1]>, <131, 6, 21, 15, 7, 0, 1, [1, 0, 1, 1]>, <132, 7, 22, 15, 7, 0, 1, [1, 0, 1, 1]>, <133, 8, 23, 15, 7, 0, 1, [1, 0, 1, 1]>, <134, 9, 24, 15, 7, 0, 1, [1, 0, 1, 1]>, <135, 10, 25, 15, 7, 0, 1, [1, 0, 1, 1]>, <136, 11, 26, 15, 7, 0, 1, [1, 0, 1, 1]>, <137, 12, 27, 15, 7, 0, 1, [1, 0, 1, 1]>, <138, 13, 28, 15, 7, 0, 1, [1, 0, 1, 1]>, <139, 14, 29, 15, 7, 0, 1, [1, 0, 1, 1]>};
